c Source: inf-euroroad (2-hop neighborhood of node 137)
c n=25, m=35, circuit_rank=11
c Augmented with 8 edges for Eulerian condition
p sp 25
e 4 5
e 1 2
e 13 14
e 2 18
e 5 9
e 9 10
e 2 3
e 5 6
e 21 23
e 16 20
e 5 20
e 3 13
e 2 5
e 10 11
e 6 7
e 5 11
e 4 21
e 4 18
e 11 12
e 5 24
e 5 14
e 23 24
e 14 19
e 2 17
e 6 22
e 8 9
e 11 15
e 1 25
e 2 25
e 4 6
e 7 8
e 9 12
e 14 15
e 16 17
e 19 22
